\ This file has been generated by DOcplex
\ ENCODING=ISO-8859-1
\Problem name: {self.PROBLEM.name} LEADER SOTA problem

Maximize
 obj: V
Subject To
 c1: V + 148.218464892058 a0_0 + 218.199789988073 a0_1 + 218.199789988073 a0_2
      <= 0
 c2: V + 218.199789988073 a0_0 + 187.199789988073 a0_1 + 272.199789988073 a0_2
      <= 0
 c3: V + 218.199789988073 a0_0 + 272.199789988073 a0_1 + 187.199789988073 a0_2
      <= 0
 c4: a0_0 + a0_1 + a0_2 = 1

Bounds
       a0_0 <= 1
       a0_1 <= 1
       a0_2 <= 1
       V Free
End
